
n_res = 6;
rcap = [65, 71, 74, 77, 1469, 1510];
rtype = [1, 1, 1, 1, 2, 2];
n_tasks = 100;
modes =  [{1, 2, 3}, {4, 5, 6}, {7, 8, 9}, {10, 11, 12}, {13, 14, 15}, {16, 17, 18}, {19, 20, 21}, {22, 23, 24}, {25, 26, 27}, {28, 29, 30}, {31, 32, 33}, {34, 35, 36}, {37, 38, 39}, {40, 41, 42}, {43, 44, 45}, {46, 47, 48}, {49, 50, 51}, {52, 53, 54}, {55, 56, 57}, {58, 59, 60}, {61, 62, 63}, {64, 65, 66}, {67, 68, 69}, {70, 71, 72}, {73, 74, 75}, {76, 77, 78}, {79, 80, 81}, {82, 83, 84}, {85, 86, 87}, {88, 89, 90}, {91, 92, 93}, {94, 95, 96}, {97, 98, 99}, {100, 101, 102}, {103, 104, 105}, {106, 107, 108}, {109, 110, 111}, {112, 113, 114}, {115, 116, 117}, {118, 119, 120}, {121, 122, 123}, {124, 125, 126}, {127, 128, 129}, {130, 131, 132}, {133, 134, 135}, {136, 137, 138}, {139, 140, 141}, {142, 143, 144}, {145, 146, 147}, {148, 149, 150}, {151, 152, 153}, {154, 155, 156}, {157, 158, 159}, {160, 161, 162}, {163, 164, 165}, {166, 167, 168}, {169, 170, 171}, {172, 173, 174}, {175, 176, 177}, {178, 179, 180}, {181, 182, 183}, {184, 185, 186}, {187, 188, 189}, {190, 191, 192}, {193, 194, 195}, {196, 197, 198}, {199, 200, 201}, {202, 203, 204}, {205, 206, 207}, {208, 209, 210}, {211, 212, 213}, {214, 215, 216}, {217, 218, 219}, {220, 221, 222}, {223, 224, 225}, {226, 227, 228}, {229, 230, 231}, {232, 233, 234}, {235, 236, 237}, {238, 239, 240}, {241, 242, 243}, {244, 245, 246}, {247, 248, 249}, {250, 251, 252}, {253, 254, 255}, {256, 257, 258}, {259, 260, 261}, {262, 263, 264}, {265, 266, 267}, {268, 269, 270}, {271, 272, 273}, {274, 275, 276}, {277, 278, 279}, {280, 281, 282}, {283, 284, 285}, {286, 287, 288}, {289, 290, 291}, {292, 293, 294}, {295, 296, 297}, {298, 299, 300}];
succ =  [{68, 56, 52, 50, 36, 28, 19, 6}, {99, 98, 96, 93, 70, 69, 68, 67, 66, 64, 56, 55, 54, 50, 47, 46, 45, 38, 37, 32, 27}, {99, 97, 96, 70, 68, 66, 65, 64, 62, 59, 47, 46, 45, 44, 43, 32, 19}, {95, 94, 92, 68, 67, 63, 56, 55, 51, 50, 47, 44, 36, 35, 34, 30, 28}, {99, 98, 96, 69, 66, 64, 55, 47, 45, 36, 14}, {100, 99, 97, 96, 93, 92, 90, 88, 70, 69, 66, 65, 61, 60, 59, 57, 54, 53, 51, 48, 47, 46, 45, 37}, {100, 99, 97, 96, 93, 92, 90, 85, 68, 67, 66, 64, 61, 60, 59, 55, 51, 47, 46, 44, 42, 39}, {97, 96, 92, 90, 67, 65, 61, 60, 59, 57, 56, 54, 52, 48, 46, 45, 42, 37, 35}, {100, 99, 94, 87, 86, 70, 67, 66, 64, 57, 55, 53, 51, 47, 44, 43, 41, 28, 26}, {100, 99, 97, 96, 95, 92, 90, 88, 86, 85, 69, 67, 66, 65, 64, 63, 61, 58, 55, 54, 51, 47, 42}, {97, 96, 86, 84, 68, 67, 58, 56, 51, 45, 43, 42, 26}, {100, 98, 97, 96, 95, 94, 93, 92, 90, 87, 86, 67, 64, 63, 60, 57, 51, 50, 47, 44}, {100, 99, 95, 94, 93, 87, 86, 63, 57, 51, 47, 44, 28, 26}, {97, 94, 89, 86, 68, 65, 63, 62, 58, 52, 51, 44, 26}, {97, 96, 91, 89, 88, 86, 69, 65, 63, 62, 61, 60, 54, 51, 47, 32}, {100, 99, 96, 92, 86, 84, 80, 76, 73, 66, 65, 59, 55, 50, 47, 38}, {95, 94, 93, 92, 90, 88, 83, 77, 76, 67, 64, 59, 56, 54, 50, 46}, {98, 97, 94, 93, 92, 91, 81, 62, 44, 36, 35}, {98, 95, 94, 89, 87, 86, 84, 63, 60, 26}, {100, 96, 94, 93, 92, 91, 90, 88, 82, 81, 75, 73, 66, 65, 55, 54, 51, 50}, {100, 98, 97, 96, 95, 93, 91, 90, 89, 86, 83, 82, 81, 79, 78, 77, 76, 67, 61, 56, 54}, {100, 92, 90, 89, 87, 81, 79, 78, 76, 75, 63, 62, 56, 54, 52}, {96, 94, 92, 88, 87, 84, 83, 79, 48, 45}, {97, 95, 94, 93, 92, 90, 89, 88, 87, 81, 80, 78, 77, 76, 75, 72, 71, 65, 63}, {98, 94, 92, 87, 84, 83, 82, 75, 73, 61, 55, 54, 51}, {92, 91, 90, 88, 85, 83, 82, 81, 79, 78, 77, 76, 75, 73, 61, 54}, {97, 87, 84, 80, 78, 76, 74, 73, 72, 61, 59, 57}, {90, 84, 82, 81, 79, 76, 73, 65, 62, 61, 60, 54}, {98, 90, 88, 86, 84, 82, 81, 80, 79, 76, 75, 74, 73, 72, 61}, {99, 96, 93, 89, 86, 84, 78, 77, 76, 75, 74, 73, 72, 66}, {96, 93, 87, 85, 82, 79, 75, 73, 62, 54}, {94, 90, 85, 84, 82, 81, 78, 77, 76, 75, 74, 73, 72}, {94, 89, 86, 83, 81, 79, 76, 74, 72, 71, 64}, {93, 91, 86, 84, 83, 81, 79, 77, 73, 72, 71}, {88, 87, 86, 85, 77, 76, 75, 73, 72, 64}, {88, 83, 80, 79, 76, 74, 73, 72, 61}, {89, 84, 80, 78, 76, 74, 73, 72, 71}, {89, 88, 87, 83, 82, 75, 62, 61}, {95, 87, 80, 78, 76, 74, 73, 63}, {92, 84, 81, 75, 74, 73, 72, 61}, {84, 79, 77, 73, 71, 54}, {98, 94, 91, 83, 79, 78, 62}, {93, 83, 77, 75, 73, 72, 61}, {84, 83, 73, 71, 54}, {95, 89, 81, 77, 75, 73, 72}, {87, 86, 81, 75, 73, 72, 71}, {81, 77, 75, 74, 72, 71}, {86, 80, 76, 71, 64}, {97, 79, 77, 73, 72}, {85, 78, 72, 62}, {79, 78, 76, 71}, {93, 88, 84, 77}, {75, 73, 62}, {80, 74, 72}, {89, 79, 72}, {85, 74, 73}, {91, 85, 79}, {91, 77, 73}, {75, 63}, {83, 77}, {71}, {71}, {82}, {78}, {74}, {71}, {74}, {77}, {87}, {71}, {}, {}, {}, {}, {}, {}, {}, {}, {}, {}, {}, {}, {}, {}, {}, {}, {}, {}, {}, {}, {}, {}, {}, {}, {}, {}, {}, {}, {}, {}];
n_opt = 300;
dur = [10, 13, 27, 8, 11, 19, 15, 16, 30, 15, 26, 28, 6, 20, 21, 1, 2, 19, 2, 5, 25, 5, 8, 20, 12, 17, 29, 18, 19, 26, 3, 15, 27, 8, 13, 30, 4, 23, 27, 7, 8, 13, 4, 7, 21, 13, 23, 26, 9, 21, 22, 1, 8, 13, 4, 8, 22, 5, 21, 27, 1, 21, 23, 1, 12, 22, 3, 6, 24, 9, 19, 29, 6, 9, 15, 8, 10, 24, 3, 4, 27, 10, 11, 19, 17, 22, 29, 3, 8, 30, 8, 26, 27, 9, 10, 21, 10, 24, 27, 5, 18, 19, 10, 12, 17, 15, 21, 22, 6, 18, 25, 22, 23, 24, 6, 12, 16, 4, 15, 16, 9, 10, 15, 5, 15, 17, 9, 16, 18, 2, 4, 18, 9, 11, 13, 8, 22, 29, 8, 18, 24, 2, 8, 24, 9, 20, 22, 1, 4, 12, 8, 19, 21, 14, 23, 24, 5, 6, 13, 2, 4, 15, 18, 20, 27, 1, 19, 28, 1, 3, 22, 14, 16, 28, 11, 12, 29, 6, 8, 19, 5, 6, 21, 3, 4, 23, 2, 16, 17, 12, 14, 19, 20, 26, 28, 19, 27, 30, 6, 21, 25, 7, 9, 11, 17, 23, 29, 8, 13, 22, 6, 11, 28, 5, 24, 26, 8, 14, 18, 1, 17, 20, 4, 13, 23, 3, 10, 15, 6, 19, 20, 1, 4, 10, 3, 20, 25, 15, 17, 27, 6, 8, 28, 13, 14, 30, 6, 15, 30, 13, 21, 28, 12, 15, 22, 1, 10, 16, 13, 14, 15, 3, 11, 17, 2, 4, 10, 1, 14, 24, 6, 7, 8, 22, 23, 29, 6, 7, 11, 2, 3, 25, 3, 13, 28, 11, 13, 23, 5, 6, 17, 22, 23, 30, 14, 17, 30, 7, 8, 14];
rreq = [|3, 3, 3, 3, 3, 3, 3, 3, 3, 5, 4, 4, 2, 1, 1, 3, 3, 3, 2, 2, 2, 4, 3, 2, 3, 2, 2, 4, 4, 4, 5, 4, 3, 2, 2, 2, 1, 1, 1, 4, 3, 2, 1, 1, 1, 5, 4, 3, 3, 3, 3, 3, 3, 3, 5, 4, 4, 4, 2, 2, 1, 1, 1, 2, 2, 2, 4, 4, 4, 5, 3, 3, 2, 2, 2, 5, 4, 3, 5, 4, 4, 3, 2, 1, 3, 3, 3, 4, 4, 4, 4, 4, 3, 2, 2, 2, 4, 2, 1, 4, 3, 1, 3, 3, 3, 3, 2, 2, 3, 3, 1, 1, 1, 1, 3, 2, 1, 4, 3, 2, 3, 3, 3, 1, 1, 1, 5, 3, 3, 2, 2, 2, 3, 3, 3, 2, 2, 2, 3, 3, 3, 4, 3, 2, 3, 2, 1, 5, 4, 4, 2, 1, 1, 3, 2, 2, 5, 5, 5, 3, 1, 1, 3, 1, 1, 4, 4, 4, 4, 3, 2, 1, 1, 1, 3, 3, 2, 4, 4, 4, 5, 4, 3, 5, 5, 5, 5, 3, 3, 4, 3, 2, 2, 2, 1, 4, 4, 4, 3, 2, 2, 2, 1, 1, 4, 3, 2, 3, 2, 2, 2, 2, 1, 3, 3, 1, 4, 4, 4, 3, 3, 2, 5, 3, 2, 4, 3, 3, 4, 4, 4, 4, 3, 2, 3, 3, 3, 1, 1, 1, 4, 3, 3, 2, 2, 2, 3, 2, 2, 4, 3, 3, 4, 4, 4, 4, 3, 2, 4, 3, 1, 5, 4, 4, 4, 4, 4, 4, 3, 3, 3, 1, 1, 1, 1, 1, 4, 4, 4, 3, 3, 3, 2, 2, 2, 1, 1, 1, 2, 2, 2, 3, 2, 1, 1, 1, 1, 2, 1, 1
 |5, 4, 4, 2, 1, 1, 3, 3, 3, 3, 1, 1, 4, 2, 2, 3, 3, 3, 3, 2, 2, 3, 2, 2, 4, 2, 2, 3, 2, 2, 4, 3, 2, 4, 4, 4, 5, 4, 4, 5, 4, 4, 5, 4, 3, 3, 3, 1, 4, 4, 4, 1, 1, 1, 3, 3, 1, 2, 2, 2, 3, 3, 3, 3, 3, 2, 3, 3, 2, 4, 3, 3, 2, 2, 2, 1, 1, 1, 4, 4, 4, 4, 3, 3, 5, 4, 4, 4, 2, 2, 4, 2, 2, 5, 2, 2, 4, 3, 2, 2, 1, 1, 4, 4, 4, 5, 3, 2, 3, 3, 2, 5, 5, 5, 5, 4, 2, 5, 4, 3, 2, 2, 2, 4, 3, 3, 4, 3, 1, 1, 1, 1, 2, 2, 2, 3, 1, 1, 3, 2, 1, 2, 1, 1, 1, 1, 1, 1, 1, 1, 2, 2, 2, 2, 1, 1, 5, 3, 2, 5, 3, 3, 5, 3, 3, 4, 4, 4, 3, 2, 2, 5, 3, 3, 1, 1, 1, 4, 4, 3, 2, 2, 1, 2, 1, 1, 2, 2, 2, 3, 1, 1, 2, 2, 2, 3, 3, 1, 3, 2, 2, 3, 1, 1, 4, 4, 4, 3, 1, 1, 3, 1, 1, 3, 3, 2, 2, 1, 1, 2, 2, 1, 4, 4, 3, 3, 3, 3, 4, 3, 3, 4, 3, 2, 4, 2, 2, 1, 1, 1, 4, 2, 2, 4, 3, 3, 2, 2, 1, 2, 2, 1, 5, 4, 4, 3, 3, 2, 3, 3, 3, 3, 2, 2, 4, 3, 3, 4, 2, 1, 2, 1, 1, 5, 4, 4, 4, 3, 3, 3, 2, 1, 2, 1, 1, 5, 2, 1, 4, 3, 2, 3, 3, 3, 4, 2, 2, 4, 3, 3
 |3, 2, 1, 5, 5, 5, 4, 4, 4, 2, 1, 1, 2, 1, 1, 3, 2, 2, 5, 4, 4, 4, 3, 1, 3, 2, 2, 1, 1, 1, 3, 3, 3, 5, 5, 5, 5, 4, 3, 5, 3, 3, 5, 5, 5, 1, 1, 1, 4, 4, 3, 5, 3, 1, 5, 3, 2, 4, 3, 2, 3, 3, 2, 4, 4, 4, 5, 4, 4, 4, 3, 3, 2, 2, 2, 3, 2, 2, 3, 3, 2, 1, 1, 1, 4, 4, 4, 5, 3, 2, 3, 2, 1, 4, 3, 3, 3, 3, 3, 3, 2, 1, 5, 5, 5, 5, 3, 3, 3, 2, 1, 1, 1, 1, 5, 3, 1, 5, 3, 3, 4, 3, 3, 2, 2, 2, 1, 1, 1, 4, 4, 4, 2, 2, 2, 4, 3, 3, 3, 2, 2, 4, 2, 1, 3, 3, 3, 4, 4, 2, 2, 1, 1, 5, 5, 5, 5, 4, 3, 1, 1, 1, 1, 1, 1, 5, 5, 5, 5, 4, 4, 2, 1, 1, 4, 3, 3, 4, 2, 1, 3, 2, 1, 4, 2, 2, 3, 1, 1, 5, 5, 5, 5, 5, 5, 1, 1, 1, 3, 3, 2, 5, 3, 2, 5, 5, 5, 4, 2, 1, 5, 4, 4, 4, 3, 3, 4, 4, 4, 2, 2, 1, 5, 5, 5, 1, 1, 1, 5, 2, 1, 2, 2, 2, 3, 2, 2, 2, 2, 2, 3, 3, 3, 2, 1, 1, 2, 2, 2, 4, 3, 3, 4, 4, 4, 4, 3, 2, 3, 3, 3, 5, 5, 5, 1, 1, 1, 4, 3, 1, 3, 3, 3, 4, 2, 1, 3, 2, 2, 4, 3, 3, 4, 2, 2, 2, 1, 1, 1, 1, 1, 5, 4, 3, 4, 4, 4, 3, 1, 1
 |2, 2, 2, 4, 3, 3, 4, 3, 3, 3, 2, 1, 3, 2, 2, 5, 5, 5, 2, 2, 2, 2, 2, 1, 2, 2, 2, 3, 2, 1, 3, 3, 2, 3, 2, 1, 4, 3, 2, 5, 4, 4, 1, 1, 1, 2, 1, 1, 4, 3, 2, 2, 2, 1, 5, 5, 5, 4, 2, 1, 1, 1, 1, 2, 1, 1, 3, 3, 3, 5, 3, 3, 3, 3, 2, 3, 2, 2, 2, 2, 2, 3, 3, 3, 2, 2, 1, 5, 4, 3, 3, 3, 3, 4, 3, 3, 5, 3, 3, 3, 2, 2, 5, 5, 5, 3, 3, 3, 4, 3, 3, 4, 3, 2, 2, 2, 2, 3, 2, 2, 5, 2, 1, 5, 3, 3, 4, 3, 2, 4, 3, 2, 2, 2, 2, 5, 4, 4, 2, 2, 2, 4, 4, 4, 4, 3, 2, 3, 3, 2, 5, 3, 2, 2, 2, 2, 5, 3, 3, 3, 2, 1, 5, 3, 2, 3, 1, 1, 4, 3, 3, 5, 3, 3, 2, 1, 1, 3, 2, 2, 5, 5, 5, 5, 4, 2, 3, 1, 1, 5, 5, 5, 2, 1, 1, 4, 4, 4, 3, 3, 1, 2, 2, 2, 4, 4, 4, 4, 4, 4, 3, 1, 1, 4, 2, 2, 5, 5, 5, 5, 4, 2, 4, 4, 2, 5, 3, 2, 5, 4, 4, 3, 3, 3, 1, 1, 1, 2, 2, 2, 3, 3, 3, 5, 3, 3, 2, 2, 2, 4, 3, 2, 3, 3, 2, 1, 1, 1, 5, 5, 5, 3, 3, 3, 2, 2, 2, 2, 2, 2, 3, 3, 3, 4, 3, 3, 5, 5, 5, 3, 2, 2, 2, 1, 1, 3, 3, 3, 4, 4, 2, 3, 2, 1, 4, 4, 3, 4, 4, 4
 |9, 8, 7, 20, 20, 20, 12, 9, 8, 9, 9, 8, 18, 18, 15, 16, 14, 14, 30, 29, 29, 27, 25, 25, 22, 17, 14, 14, 8, 4, 24, 22, 22, 9, 6, 5, 17, 16, 9, 12, 9, 7, 14, 10, 9, 26, 19, 6, 9, 9, 8, 22, 20, 18, 20, 17, 10, 14, 12, 8, 10, 7, 5, 24, 17, 2, 8, 5, 5, 10, 10, 8, 19, 17, 14, 22, 18, 14, 16, 13, 8, 14, 10, 8, 26, 22, 20, 24, 24, 24, 17, 10, 7, 18, 16, 14, 27, 25, 24, 23, 18, 15, 22, 15, 3, 23, 11, 8, 11, 10, 7, 16, 14, 9, 21, 20, 19, 26, 22, 21, 9, 4, 2, 24, 24, 24, 27, 24, 20, 19, 17, 10, 10, 9, 8, 21, 13, 10, 7, 7, 6, 23, 16, 11, 15, 14, 13, 18, 17, 15, 21, 20, 20, 23, 16, 13, 23, 18, 18, 9, 5, 4, 8, 5, 4, 23, 23, 20, 20, 16, 15, 22, 14, 13, 13, 8, 2, 21, 21, 21, 25, 19, 5, 16, 13, 3, 16, 13, 12, 25, 24, 21, 26, 13, 3, 22, 11, 4, 17, 11, 6, 17, 8, 2, 16, 9, 8, 18, 13, 7, 21, 11, 5, 28, 27, 27, 29, 19, 2, 14, 14, 14, 26, 18, 9, 9, 6, 2, 28, 20, 8, 24, 21, 18, 20, 18, 17, 11, 9, 6, 5, 4, 3, 29, 29, 29, 25, 22, 19, 29, 27, 23, 6, 5, 3, 20, 15, 12, 22, 19, 13, 8, 6, 4, 22, 22, 22, 7, 6, 4, 15, 12, 9, 9, 8, 8, 14, 9, 9, 19, 15, 3, 18, 13, 12, 13, 9, 7, 16, 15, 14, 21, 18, 15, 10, 4, 3, 15, 14, 10
 |8, 8, 8, 12, 9, 5, 21, 15, 9, 16, 13, 7, 25, 24, 16, 22, 14, 11, 14, 13, 12, 6, 6, 4, 17, 9, 2, 15, 12, 10, 21, 21, 17, 24, 24, 17, 18, 12, 5, 17, 13, 5, 20, 12, 4, 17, 14, 10, 25, 23, 23, 26, 21, 19, 18, 14, 12, 10, 7, 2, 16, 14, 13, 26, 20, 15, 19, 14, 12, 7, 5, 4, 18, 15, 14, 17, 15, 5, 25, 16, 10, 25, 20, 16, 15, 14, 5, 13, 13, 13, 26, 26, 23, 22, 16, 10, 13, 9, 7, 23, 18, 14, 23, 19, 11, 21, 18, 10, 27, 27, 25, 20, 11, 11, 7, 6, 5, 18, 17, 5, 22, 17, 12, 25, 25, 19, 24, 22, 17, 13, 10, 10, 16, 13, 13, 21, 20, 18, 13, 12, 11, 27, 27, 27, 16, 9, 4, 11, 9, 4, 27, 17, 13, 26, 14, 7, 9, 8, 8, 26, 25, 22, 21, 20, 15, 23, 13, 11, 23, 21, 15, 19, 11, 6, 29, 24, 23, 20, 12, 6, 10, 9, 8, 24, 15, 8, 29, 24, 20, 8, 7, 5, 20, 15, 4, 6, 4, 4, 27, 25, 21, 20, 17, 15, 17, 12, 8, 27, 26, 25, 4, 4, 4, 5, 2, 1, 28, 27, 26, 17, 10, 8, 25, 21, 18, 8, 8, 4, 29, 21, 17, 10, 7, 4, 15, 12, 11, 25, 23, 19, 20, 17, 15, 19, 16, 12, 24, 22, 18, 8, 7, 7, 25, 24, 24, 18, 18, 16, 17, 16, 11, 29, 21, 15, 22, 11, 3, 8, 5, 4, 17, 15, 11, 19, 12, 7, 21, 21, 20, 15, 14, 9, 20, 18, 5, 21, 18, 17, 15, 13, 11, 30, 25, 21, 11, 7, 6, 11, 6, 2|];